23      2       
22      18      
0       0       0       15      2       3       5       6       7       8       9       10      11      17      18      19      20      21      22      
10      10      8       2       4       12      
3       10      5       1       13      
6       5       8       1       14      
2       7       8       1       23      
3       5       1       1       23      
7       5       1       1       23      
6       10      8       1       23      
2       10      1       1       16      
3       4       4       1       15      
1       5       4       1       12      
10      10      5       1       23      
2       10      5       1       23      
10      10      5       1       23      
3       5       8       1       23      
5       5       8       1       23      
5       2       4       1       23      
6       5       8       1       23      
8       3       1       1       23      
10      4       8       1       23      
2       10      5       1       23      
1       10      8       1       23      
0       0       0       0       
